牛客/2019牛客暑期多校训练营/数据/9_D_Knapsack Cryptosystem/7.in
36 733816378013456
28904170959298 57808341918596 30749753283957 34440917933275 103322753799825 65815817452478 29856381079 109544359771206 8811760055602 71234976669552 24412397323086 13937868764125 21418956043063 22864926706746 17918889847168 17537685217851 3342253058609 56200635983033 61562536713471 79270646979652 15960199728007 92300670468181 4510744547915 108169158387784 17033087118428 52887977920356 14565980626447 30492952718687 50098617101511 6073728146032 87841659623659 88888002228921 26286041722902 89025044243680 10788627695373 95627851383566
